% DOCUMENT_NUMBER represents the number of documents in the catalog
% METADATA_KEY_NUMBER represents the total number of metadata key
% product_matrix is a matrix DOCUMENT_NUMBER x METADATA_KEY giving the metadata value for a metadata key on a specific document

PRODUCT_NUMBER = 3;
VARIANT_NUMBER = 7;
METADATA_KEY_NUMBER = 8;
product_matrix = [|
    2, 10, 20, 21, 0, 0, 0, 0 |
    0, 11, 0, 21, 22, 0, 0, 0 |
    1, 12, 20, 0, 23, 0, 0, 0 |];
variant_matrix = [|
    1, 2, 0, 2, 10, 90, 12, 0  |
    0, 0, 2, 1, 11, 91, 12, 13 |
    0, 0, 2, 1, 11, 93, 12, 22 |
    2, 2, 0, 2, 10, 94, 12, 0  |
    0, 0, 2, 1, 11, 95, 12, 10 |
    3, 2, 0, 2, 10, 96, 12, 0  |
    0, 4, 3, 4, 12, 97, 12, 12 |];

% Answers:
% Product ID field index: [2, 5]
% sku ID field index on variants: 6

% Ameliorations:
% ne pas padder les matrices si le nb de metadata key differe d'un objet a l'autre. Seulement ajouter d'autres constantes
